# avogadro generated ORCA file
# Geometry Optimization | HF/def2-TZVP
# 
!HF DEF2-SVP LARGEPRINT

%maxcore 16384

%pal
   nprocs 1
end

* xyz 0 1
   C     -0.016700    1.381400    0.009600
   C      2.420200    0.028200   -0.020900
   C      1.177600    2.084900    0.002000
   C      2.386000    1.413800   -0.013100
   H     -0.490900   -6.139900    2.006500
   O     -2.240500   -0.856100    0.018800
   O      1.696100   -3.042500   -0.029900
   O     -0.472700   -3.740300    2.234700
   O     -0.986600   -7.591400    0.146900
   C     -0.775900   -4.330000   -1.261100
   C     -1.442100   -5.708000   -1.184600
   C     -1.153100   -3.535300   -0.006400
   C     -1.041800   -1.050600    0.006400
   C      0.897400   -2.127600   -0.017500
   C     -0.765700   -4.326600    1.214900
   C     -1.039400   -6.381100    0.100900
   C      0.002100   -0.004100    0.002000
   C      1.234200   -0.688300   -0.013400
   N     -0.441800   -2.254600   -0.005800
   N     -0.738100   -5.667600    1.196100
   H     -2.228000   -3.354900    0.001100
   H      0.306600   -4.448900   -1.307500
   H     -1.127100   -3.802400   -2.147900
   H     -2.525400   -5.590700   -1.210200
   H     -1.120400   -6.315600   -2.030400
   H     -0.957900    1.910900    0.025900
   H      3.367200   -0.490800   -0.033100
   H      1.164000    3.164800    0.007600
   H      3.309900    1.973100   -0.018600
*


